
%number of servers
V_ = 3;

% number of Movies
M_ = 5;

% standard cost of sending 1 MB over 1km
CTR = 1;

% storage capacity of server v 
RS = array1d (1..V_, [999, 999, 999]);

% outgoing transmittion capacity of server v
RT_OUT = array1d (1..V_, [999, 999, 999]);

% movie size
HS = array1d (1..M_, [1,1,1,1,1]);

%movie bitrate
HB = array1d (1..M_, [1,1,1,1,1]);

%movie popularity from each server
HP = array2d (1..V_,1..M_, [
1,1,1,1,1,
1,1,1,1,1,
1,1,1,1,1]);


%edge distances
ED = array2d (1..V_, 1..V_, [
0, 2, 2,
2, 0, 2,
2, 2, 0]);


%allocation cost
CA = array2d (1..V_, 1..M_, [
1, 1, 1, 1, 1,
19, 19, 19, 19, 19,
19, 19, 19, 19, 19]);


